20
1 0 6
2 0 6
2 1 3
3 0 4
3 1 7
3 2 7
4 0 6
4 1 5
4 2 2
4 3 7
5 0 6
5 1 8
5 2 6
5 3 7
5 4 1
6 0 7
6 1 2
6 2 6
6 3 6
6 4 7
6 5 8
7 0 8
7 1 4
7 2 4
7 3 2
7 4 5
7 5 8
7 6 7
8 0 4
8 1 8
8 2 5
8 3 5
8 4 3
8 5 5
8 6 8
8 7 1
9 0 3
9 1 6
9 2 8
9 3 6
9 4 1
9 5 4
9 6 1
9 7 7
9 8 2
10 0 8
10 1 4
10 2 8
10 3 8
10 4 3
10 5 7
10 6 7
10 7 4
10 8 7
10 9 2
11 0 6
11 1 5
11 2 5
11 3 3
11 4 1
11 5 8
11 6 7
11 7 4
11 8 1
11 9 7
11 10 6
12 0 1
12 1 8
12 2 1
12 3 2
12 4 3
12 5 3
12 6 4
12 7 6
12 8 6
12 9 1
12 10 3
12 11 4
13 0 4
13 1 2
13 2 4
13 3 7
13 4 1
13 5 8
13 6 3
13 7 4
13 8 2
13 9 8
13 10 5
13 11 2
13 12 8
14 0 8
14 1 2
14 2 2
14 3 6
14 4 3
14 5 4
14 6 4
14 7 8
14 8 8
14 9 2
14 10 4
14 11 8
14 12 3
14 13 2
15 0 7
15 1 8
15 2 7
15 3 4
15 4 7
15 5 4
15 6 8
15 7 2
15 8 7
15 9 1
15 10 2
15 11 7
15 12 1
15 13 3
15 14 3
16 0 1
16 1 6
16 2 3
16 3 8
16 4 4
16 5 4
16 6 1
16 7 7
16 8 4
16 9 8
16 10 7
16 11 2
16 12 3
16 13 4
16 14 6
16 15 6
17 0 7
17 1 1
17 2 8
17 3 5
17 4 4
17 5 2
17 6 5
17 7 3
17 8 6
17 9 1
17 10 2
17 11 5
17 12 1
17 13 3
17 14 6
17 15 8
17 16 4
18 0 3
18 1 3
18 2 3
18 3 8
18 4 4
18 5 4
18 6 7
18 7 5
18 8 5
18 9 8
18 10 7
18 11 8
18 12 4
18 13 3
18 14 5
18 15 7
18 16 6
18 17 3
19 0 6
19 1 5
19 2 1
19 3 2
19 4 6
19 5 7
19 6 1
19 7 6
19 8 4
19 9 4
19 10 3
19 11 4
19 12 7
19 13 5
19 14 7
19 15 3
19 16 7
19 17 3
19 18 6
